\ENCODING=ISO-8859-1
\Problem name: ilog.cplex

Minimize
 obj:
Subject To
 c1:  x(0,1,0,2,5,3)(0) + x(0,1,0,2,5,3)(1) + x(0,1,0,2,5,3)(2)
      + x(0,1,0,2,5,3)(3)  = 335
 c2:  x(0,1,0,2,5,3)(0) - xNG(0,1,0,2,5,3)  = 0
 c3:  x(0,1,0,2,5,3)(1) - xPB(0,1,0,2,5,3)(0) - xPB(0,1,0,2,5,3)(1)
      - xPB(0,1,0,2,5,3)(2) - xPB(0,1,0,2,5,3)(3) - xPB(0,1,0,2,5,3)(4)  = 0
 c4:  x(0,1,0,2,5,3)(2) - xGS(0,1,0,2,5,3)(0) - xGS(0,1,0,2,5,3)(1)
      - xGS(0,1,0,2,5,3)(2) - xGS(0,1,0,2,5,3)(3) - xGS(0,1,0,2,5,3)(4)  = 0
 c5:  x(0,1,0,2,5,3)(3) - xEAe(0,1,0,2,5,3)(1) - xEAe'(0,1,0,2,5,3)(1)(5)  = 0
 c6:  xEAe(0,1,0,2,5,3)(3)  = 0
 c7:  xEAe(0,1,0,2,5,3)(1) - xEAe(0,1,0,2,5,3)(2) - xEAe'(0,1,0,2,5,3)(2)(5)
       = 0
 c8:  xEAe(0,1,0,2,5,3)(2) - xEAe(0,1,0,2,5,3)(3) - xEAe'(0,1,0,2,5,3)(3)(5)
       = 0
 c9:  xEAr(0,1,0,2,0)(2)(1) - xEAr(0,1,0,2,0)(3)(2) - xEAr'(0,1,0,2,0)(3)(2)(0)
       = 0
 c10: xEAr(0,1,0,2,1)(2)(1) - xEAr(0,1,0,2,1)(3)(2) - xEAr'(0,1,0,2,1)(3)(2)(1)
       = 0
 c11: xEAr(0,1,0,2,2)(2)(1) - xEAr(0,1,0,2,2)(3)(2) - xEAr'(0,1,0,2,2)(3)(2)(2)
       = 0
 c12: xEAr(0,1,0,2,3)(2)(1) - xEAr(0,1,0,2,3)(3)(2) - xEAr'(0,1,0,2,3)(3)(2)(3)
       = 0
 c13: xEAr(0,1,0,2,4)(2)(1) - xEAr(0,1,0,2,4)(3)(2) - xEAr'(0,1,0,2,4)(3)(2)(4)
       = 0
 c14: xEAr(0,1,0,2,5)(2)(1) - xEAr(0,1,0,2,5)(3)(2) - xEAr'(0,1,0,2,5)(3)(2)(5)
       = 0
 c15: xEAr(0,1,0,2,6)(2)(1) - xEAr(0,1,0,2,6)(3)(2) - xEAr'(0,1,0,2,6)(3)(2)(6)
       = 0
 c16: - xEAr(0,1,0,2,0)(2)(1) - xEAr'(0,1,0,2,0)(2)(1)(0)  = 0
 c17: - xEAr(0,1,0,2,1)(2)(1) - xEAr'(0,1,0,2,1)(2)(1)(1)  = 0
 c18: - xEAr(0,1,0,2,2)(2)(1) - xEAr'(0,1,0,2,2)(2)(1)(2)  = 0
 c19: - xEAr(0,1,0,2,3)(2)(1) - xEAr'(0,1,0,2,3)(2)(1)(3)  = 0
 c20: - xEAr(0,1,0,2,4)(2)(1) - xEAr'(0,1,0,2,4)(2)(1)(4)  = 0
 c21: xEAe'(0,1,0,2,5,3)(1)(5) - xEAr(0,1,0,2,5)(2)(1)
      - xEAr'(0,1,0,2,5)(2)(1)(5)  = 0
 c22: - xEAr(0,1,0,2,6)(2)(1) - xEAr'(0,1,0,2,6)(2)(1)(6)  = 0
 c23: - xEAr(0,1,0,2,0)(3)(1) + xEAr'(0,1,0,2,0)(2)(1)(0)
      - xEAr'(0,1,0,2,0)(3)(1)(0)  = 0
 c24: - xEAr(0,1,0,2,1)(3)(1) + xEAr'(0,1,0,2,1)(2)(1)(1)
      - xEAr'(0,1,0,2,1)(3)(1)(1)  = 0
 c25: - xEAr(0,1,0,2,2)(3)(1) + xEAr'(0,1,0,2,2)(2)(1)(2)
      - xEAr'(0,1,0,2,2)(3)(1)(2)  = 0
 c26: - xEAr(0,1,0,2,3)(3)(1) + xEAr'(0,1,0,2,3)(2)(1)(3)
      - xEAr'(0,1,0,2,3)(3)(1)(3)  = 0
 c27: - xEAr(0,1,0,2,4)(3)(1) + xEAr'(0,1,0,2,4)(2)(1)(4)
      - xEAr'(0,1,0,2,4)(3)(1)(4)  = 0
 c28: xEAe'(0,1,0,2,5,3)(2)(5) - xEAr(0,1,0,2,5)(3)(1)
      + xEAr'(0,1,0,2,5)(2)(1)(5) - xEAr'(0,1,0,2,5)(3)(1)(5)  = 0
 c29: - xEAr(0,1,0,2,6)(3)(1) + xEAr'(0,1,0,2,6)(2)(1)(6)
      - xEAr'(0,1,0,2,6)(3)(1)(6)  = 0
 c30: - xEAe(0,1,0,2,5,3)(1) + xEAe'(0,1,0,2,5,3)(1)(5)
      + xEAe'(0,1,0,2,5,3)(2)(5) + xEAe'(0,1,0,2,5,3)(3)(5)
      + xEAeR(0,1,0,2,5,3)(1)  = 0
 c31: - xEAe(0,1,0,2,5,3)(2) + xEAe'(0,1,0,2,5,3)(2)(5)
      + xEAe'(0,1,0,2,5,3)(3)(5) + xEAeR(0,1,0,2,5,3)(2)  = 0
 c32: - xEAe(0,1,0,2,5,3)(3) + xEAe'(0,1,0,2,5,3)(3)(5) + xEAeR(0,1,0,2,5,3)(3)
       = 0
 c33: x(0,1,0,2,5,3)(0) - xEAr(0,1,0,2,0)(2)(1) + xEAr'(0,1,0,2,0)(3)(1)(0)
      + xEArR(0,1,0,2,0)(2)(1)  = 0
 c34: x(0,1,0,2,5,3)(0) - xEAr(0,1,0,2,0)(3)(1) + xEArR(0,1,0,2,0)(3)(1)  = 0
 c35: x(0,1,0,2,5,3)(0) - xEAr(0,1,0,2,0)(3)(2) + xEArR(0,1,0,2,0)(3)(2)  = 0
 c36: x(0,1,0,2,5,3)(0) - xEAr(0,1,0,2,1)(2)(1) + xEAr'(0,1,0,2,1)(3)(1)(1)
      + xEArR(0,1,0,2,1)(2)(1)  = 0
 c37: x(0,1,0,2,5,3)(0) - xEAr(0,1,0,2,1)(3)(1) + xEArR(0,1,0,2,1)(3)(1)  = 0
 c38: x(0,1,0,2,5,3)(0) - xEAr(0,1,0,2,1)(3)(2) + xEArR(0,1,0,2,1)(3)(2)  = 0
 c39: x(0,1,0,2,5,3)(0) - xEAr(0,1,0,2,2)(2)(1) + xEAr'(0,1,0,2,2)(3)(1)(2)
      + xEArR(0,1,0,2,2)(2)(1)  = 0
 c40: x(0,1,0,2,5,3)(0) - xEAr(0,1,0,2,2)(3)(1) + xEArR(0,1,0,2,2)(3)(1)  = 0
 c41: x(0,1,0,2,5,3)(0) - xEAr(0,1,0,2,2)(3)(2) + xEArR(0,1,0,2,2)(3)(2)  = 0
 c42: x(0,1,0,2,5,3)(0) - xEAr(0,1,0,2,3)(2)(1) + xEAr'(0,1,0,2,3)(3)(1)(3)
      + xEArR(0,1,0,2,3)(2)(1)  = 0
 c43: x(0,1,0,2,5,3)(0) - xEAr(0,1,0,2,3)(3)(1) + xEArR(0,1,0,2,3)(3)(1)  = 0
 c44: x(0,1,0,2,5,3)(0) - xEAr(0,1,0,2,3)(3)(2) + xEArR(0,1,0,2,3)(3)(2)  = 0
 c45: x(0,1,0,2,5,3)(0) - xEAr(0,1,0,2,4)(2)(1) + xEAr'(0,1,0,2,4)(3)(1)(4)
      + xEArR(0,1,0,2,4)(2)(1)  = 0
 c46: x(0,1,0,2,5,3)(0) - xEAr(0,1,0,2,4)(3)(1) + xEArR(0,1,0,2,4)(3)(1)  = 0
 c47: x(0,1,0,2,5,3)(0) - xEAr(0,1,0,2,4)(3)(2) + xEArR(0,1,0,2,4)(3)(2)  = 0
 c48: x(0,1,0,2,5,3)(0) - xEAr(0,1,0,2,5)(2)(1) + xEAr'(0,1,0,2,5)(3)(1)(5)
      + xEArR(0,1,0,2,5)(2)(1)  = 0
 c49: x(0,1,0,2,5,3)(0) - xEAr(0,1,0,2,5)(3)(1) + xEArR(0,1,0,2,5)(3)(1)  = 0
 c50: x(0,1,0,2,5,3)(0) - xEAr(0,1,0,2,5)(3)(2) + xEArR(0,1,0,2,5)(3)(2)  = 0
 c51: x(0,1,0,2,5,3)(0) - xEAr(0,1,0,2,6)(2)(1) + xEAr'(0,1,0,2,6)(3)(1)(6)
      + xEArR(0,1,0,2,6)(2)(1)  = 0
 c52: x(0,1,0,2,5,3)(0) - xEAr(0,1,0,2,6)(3)(1) + xEArR(0,1,0,2,6)(3)(1)  = 0
 c53: x(0,1,0,2,5,3)(0) - xEAr(0,1,0,2,6)(3)(2) + xEArR(0,1,0,2,6)(3)(2)  = 0
End
